hw2/hw2_1c.dat
set VARS := x1 x2 x3 x4 x5;
set SLACKS := s1 s2 s3;
set ALLVARS := x1 x2 x3 x4 x5 s1 s2 s3;

param c :=
x1 45
x2 90
x3 58
x4 50
x5 95
s1 0
s2 0
s3 0 ;

param A: x1 x2 x3 x4 x5 s1 s2 s3 :=
1   18 47 25  3 23  1 0 0
2    5  8  5 15 22  0 1 0
3    3  6 10 10 12  0 0 1 ;

param b :=
1 25
2 10
3 5 ;
