hw2/hw2_1c.out
x [*] :=
x1  1
x2  0.0892019
x3  0
x4  0
x5  0.122066
;

obj = 64.6244

